Minimize
2 u_0 + u_1 + 2 u_2 + u_3 + 2 u_4 + u_5 + 2 u_6 + u_7 + 2 u_8 + u_9 + 2 u_10 + u_11 + 2 u_12 + u_13 + 2 u_14 + u_15 + 2 u_16 + u_17 + 2 u_18 + u_19 + 2 u_20 + u_21 + 2 u_22 + u_23 + 2 u_24 + u_25 + 2 u_26 + u_27 + 2 u_28 + u_29 + 2 u_30 + u_31
Subject To
x_0 + x_1 + x_2 + x_3 + x_4 + x_5 + x_6 + x_7 + x_8 + x_9 + x_10 + x_11 + x_12 + x_13 + x_14 + x_15 + x_16 + x_17 + x_18 + x_19 + x_20 + x_21 + x_22 + x_23 + x_24 + x_25 + x_26 + x_27 + x_28 + x_29 + x_30 + x_31 + x_32 + x_33 + x_34 + x_35 + x_36 + x_37 + x_38 + x_39 + x_40 + x_41 + x_42 + x_43 + x_44 + x_45 + x_46 + x_47 + x_48 + x_49 + x_50 + x_51 + x_52 + x_53 + x_54 + x_55 + x_56 + x_57 + x_58 + x_59 + x_60 + x_61 + x_62 + x_63 >= 1
0 x_0 - 1 x_1 - 1 x_2 - 1 x_3 - 2 y_0 - 2 y_1 - 2 y_2 - 1 y_3 + 10 u_0 - 3 u_1 >= 0
4 x_0 + 2 x_1 + 2 x_2 + 5 x_3 + 1 y_0 + 4 y_1 + 1 y_2 + 6 y_3 - 12 u_0 + 8 u_1 >= 0
3 x_0 + 4 x_1 + 4 x_2 + 2 x_3 + 2 y_0 + 0 y_1 + 2 y_2 + 1 y_3 - 5 u_0 - 1 u_1 >= 0
-1 x_0 - 8 x_1 + 7 x_2 - 3 x_3 - 2 y_0 + 4 y_1 - 2 y_2 - 9 y_3 + 14 u_0 + 11 u_1 >= 0
-5 x_0 + 4 x_1 - 2 x_2 - 3 x_3 + 3 y_0 + 1 y_1 - 3 y_2 - 1 y_3 + 7 u_0 + 4 u_1 >= 0
0 x_0 - 1 x_1 - 1 x_2 + 1 x_3 + 2 y_0 + 0 y_1 + 2 y_2 + 0 y_3 + 1 u_0 - 1 u_1 >= 0
-1 x_0 + 1 x_1 - 2 x_2 + 2 x_3 - 5 y_0 - 4 y_1 + 3 y_2 + 1 y_3 + 6 u_0 + 5 u_1 >= 0
1 x_0 - 5 x_1 + 2 x_2 - 2 x_3 + 3 y_0 - 5 y_1 - 3 y_2 + 1 y_3 + 9 u_0 + 4 u_1 >= 0
3 x_0 + 2 x_1 - 5 x_2 - 3 x_3 - 2 y_0 - 1 y_1 + 3 y_2 - 1 y_3 + 7 u_0 + 2 u_1 >= 0
1 x_0 + 2 x_1 + 2 x_2 + 0 x_3 - 1 y_0 + 0 y_1 - 1 y_2 + 0 y_3 + 1 u_0 - 1 u_1 >= 0
-3 x_0 - 2 x_1 + 1 x_2 - 2 x_3 - 2 y_0 - 1 y_1 + 3 y_2 - 1 y_3 + 7 u_0 + 1 u_1 >= 0
1 x_0 - 1 x_1 - 1 x_2 + 1 x_3 - 1 y_0 + 0 y_1 - 1 y_2 - 1 y_3 + 5 u_0 - 2 u_1 >= 0
-2 x_0 - 1 x_1 - 1 x_2 - 2 x_3 + 1 y_0 + 1 y_1 + 0 y_2 + 1 y_3 + 5 u_0 - 1 u_1 >= 0
-8 x_0 - 4 x_1 - 4 x_2 + 6 x_3 - 1 y_0 + 2 y_1 - 1 y_2 + 0 y_3 + 10 u_0 + 7 u_1 >= 0
0 x_0 + 1 x_1 + 1 x_2 - 1 x_3 + 1 y_0 - 1 y_1 + 1 y_2 - 1 y_3 + 2 u_0 - 1 u_1 >= 0
3 x_0 + 2 x_1 + 1 x_2 + 0 x_3 + 2 y_0 + 4 y_1 + 2 y_2 + 4 y_3 - 6 u_0 + 1 u_1 >= 0
0 x_0 + 3 x_1 - 3 x_2 + 1 x_3 - 1 y_0 - 1 y_1 - 2 y_2 - 2 y_3 + 6 u_0 + 1 u_1 >= 0
1 x_0 - 2 x_1 + 3 x_2 + 2 x_3 + 1 y_0 + 3 y_1 - 2 y_2 - 2 y_3 + 2 u_0 + 1 u_1 >= 0
0 x_0 - 3 x_1 - 3 x_2 - 2 x_3 - 1 y_0 + 2 y_1 - 1 y_2 - 2 y_3 + 10 u_0 - 1 u_1 >= 0
-1 x_0 + 2 x_1 + 2 x_2 + 5 x_3 + 1 y_0 - 1 y_1 + 1 y_2 + 3 y_3 - 3 u_0 + 1 u_1 >= 0
-1 x_0 + 0 x_1 - 1 x_2 - 1 x_3 - 1 y_0 + 0 y_1 + 1 y_2 + 1 y_3 + 4 u_0 - 1 u_1 >= 0
0 x_0 + 2 x_1 - 2 x_2 + 1 x_3 - 1 y_0 + 1 y_1 + 0 y_2 - 1 y_3 + 2 u_0 + 1 u_1 >= 0
3 x_0 + 1 x_1 + 1 x_2 - 3 x_3 - 2 y_0 - 3 y_1 - 2 y_2 + 1 y_3 + 7 u_0 - 1 u_1 >= 0
-3 x_0 - 1 x_1 + 2 x_2 - 2 x_3 - 2 y_0 + 0 y_1 + 2 y_2 - 1 y_3 + 5 u_0 + 2 u_1 >= 0
0 x_0 - 2 x_1 + 2 x_2 + 1 x_3 - 2 y_0 - 1 y_1 + 0 y_2 - 1 y_3 + 4 u_0 + 1 u_1 >= 0
0 x_4 - 1 x_5 - 1 x_6 - 1 x_7 - 2 y_4 - 2 y_5 - 2 y_6 - 1 y_7 + 10 u_2 - 3 u_3 >= 0
4 x_4 + 2 x_5 + 2 x_6 + 5 x_7 + 1 y_4 + 4 y_5 + 1 y_6 + 6 y_7 - 12 u_2 + 8 u_3 >= 0
3 x_4 + 4 x_5 + 4 x_6 + 2 x_7 + 2 y_4 + 0 y_5 + 2 y_6 + 1 y_7 - 5 u_2 - 1 u_3 >= 0
-1 x_4 - 8 x_5 + 7 x_6 - 3 x_7 - 2 y_4 + 4 y_5 - 2 y_6 - 9 y_7 + 14 u_2 + 11 u_3 >= 0
-5 x_4 + 4 x_5 - 2 x_6 - 3 x_7 + 3 y_4 + 1 y_5 - 3 y_6 - 1 y_7 + 7 u_2 + 4 u_3 >= 0
0 x_4 - 1 x_5 - 1 x_6 + 1 x_7 + 2 y_4 + 0 y_5 + 2 y_6 + 0 y_7 + 1 u_2 - 1 u_3 >= 0
-1 x_4 + 1 x_5 - 2 x_6 + 2 x_7 - 5 y_4 - 4 y_5 + 3 y_6 + 1 y_7 + 6 u_2 + 5 u_3 >= 0
1 x_4 - 5 x_5 + 2 x_6 - 2 x_7 + 3 y_4 - 5 y_5 - 3 y_6 + 1 y_7 + 9 u_2 + 4 u_3 >= 0
3 x_4 + 2 x_5 - 5 x_6 - 3 x_7 - 2 y_4 - 1 y_5 + 3 y_6 - 1 y_7 + 7 u_2 + 2 u_3 >= 0
1 x_4 + 2 x_5 + 2 x_6 + 0 x_7 - 1 y_4 + 0 y_5 - 1 y_6 + 0 y_7 + 1 u_2 - 1 u_3 >= 0
-3 x_4 - 2 x_5 + 1 x_6 - 2 x_7 - 2 y_4 - 1 y_5 + 3 y_6 - 1 y_7 + 7 u_2 + 1 u_3 >= 0
1 x_4 - 1 x_5 - 1 x_6 + 1 x_7 - 1 y_4 + 0 y_5 - 1 y_6 - 1 y_7 + 5 u_2 - 2 u_3 >= 0
-2 x_4 - 1 x_5 - 1 x_6 - 2 x_7 + 1 y_4 + 1 y_5 + 0 y_6 + 1 y_7 + 5 u_2 - 1 u_3 >= 0
-8 x_4 - 4 x_5 - 4 x_6 + 6 x_7 - 1 y_4 + 2 y_5 - 1 y_6 + 0 y_7 + 10 u_2 + 7 u_3 >= 0
0 x_4 + 1 x_5 + 1 x_6 - 1 x_7 + 1 y_4 - 1 y_5 + 1 y_6 - 1 y_7 + 2 u_2 - 1 u_3 >= 0
3 x_4 + 2 x_5 + 1 x_6 + 0 x_7 + 2 y_4 + 4 y_5 + 2 y_6 + 4 y_7 - 6 u_2 + 1 u_3 >= 0
0 x_4 + 3 x_5 - 3 x_6 + 1 x_7 - 1 y_4 - 1 y_5 - 2 y_6 - 2 y_7 + 6 u_2 + 1 u_3 >= 0
1 x_4 - 2 x_5 + 3 x_6 + 2 x_7 + 1 y_4 + 3 y_5 - 2 y_6 - 2 y_7 + 2 u_2 + 1 u_3 >= 0
0 x_4 - 3 x_5 - 3 x_6 - 2 x_7 - 1 y_4 + 2 y_5 - 1 y_6 - 2 y_7 + 10 u_2 - 1 u_3 >= 0
-1 x_4 + 2 x_5 + 2 x_6 + 5 x_7 + 1 y_4 - 1 y_5 + 1 y_6 + 3 y_7 - 3 u_2 + 1 u_3 >= 0
-1 x_4 + 0 x_5 - 1 x_6 - 1 x_7 - 1 y_4 + 0 y_5 + 1 y_6 + 1 y_7 + 4 u_2 - 1 u_3 >= 0
0 x_4 + 2 x_5 - 2 x_6 + 1 x_7 - 1 y_4 + 1 y_5 + 0 y_6 - 1 y_7 + 2 u_2 + 1 u_3 >= 0
3 x_4 + 1 x_5 + 1 x_6 - 3 x_7 - 2 y_4 - 3 y_5 - 2 y_6 + 1 y_7 + 7 u_2 - 1 u_3 >= 0
-3 x_4 - 1 x_5 + 2 x_6 - 2 x_7 - 2 y_4 + 0 y_5 + 2 y_6 - 1 y_7 + 5 u_2 + 2 u_3 >= 0
0 x_4 - 2 x_5 + 2 x_6 + 1 x_7 - 2 y_4 - 1 y_5 + 0 y_6 - 1 y_7 + 4 u_2 + 1 u_3 >= 0
0 x_8 - 1 x_9 - 1 x_10 - 1 x_11 - 2 y_8 - 2 y_9 - 2 y_10 - 1 y_11 + 10 u_4 - 3 u_5 >= 0
4 x_8 + 2 x_9 + 2 x_10 + 5 x_11 + 1 y_8 + 4 y_9 + 1 y_10 + 6 y_11 - 12 u_4 + 8 u_5 >= 0
3 x_8 + 4 x_9 + 4 x_10 + 2 x_11 + 2 y_8 + 0 y_9 + 2 y_10 + 1 y_11 - 5 u_4 - 1 u_5 >= 0
-1 x_8 - 8 x_9 + 7 x_10 - 3 x_11 - 2 y_8 + 4 y_9 - 2 y_10 - 9 y_11 + 14 u_4 + 11 u_5 >= 0
-5 x_8 + 4 x_9 - 2 x_10 - 3 x_11 + 3 y_8 + 1 y_9 - 3 y_10 - 1 y_11 + 7 u_4 + 4 u_5 >= 0
0 x_8 - 1 x_9 - 1 x_10 + 1 x_11 + 2 y_8 + 0 y_9 + 2 y_10 + 0 y_11 + 1 u_4 - 1 u_5 >= 0
-1 x_8 + 1 x_9 - 2 x_10 + 2 x_11 - 5 y_8 - 4 y_9 + 3 y_10 + 1 y_11 + 6 u_4 + 5 u_5 >= 0
1 x_8 - 5 x_9 + 2 x_10 - 2 x_11 + 3 y_8 - 5 y_9 - 3 y_10 + 1 y_11 + 9 u_4 + 4 u_5 >= 0
3 x_8 + 2 x_9 - 5 x_10 - 3 x_11 - 2 y_8 - 1 y_9 + 3 y_10 - 1 y_11 + 7 u_4 + 2 u_5 >= 0
1 x_8 + 2 x_9 + 2 x_10 + 0 x_11 - 1 y_8 + 0 y_9 - 1 y_10 + 0 y_11 + 1 u_4 - 1 u_5 >= 0
-3 x_8 - 2 x_9 + 1 x_10 - 2 x_11 - 2 y_8 - 1 y_9 + 3 y_10 - 1 y_11 + 7 u_4 + 1 u_5 >= 0
1 x_8 - 1 x_9 - 1 x_10 + 1 x_11 - 1 y_8 + 0 y_9 - 1 y_10 - 1 y_11 + 5 u_4 - 2 u_5 >= 0
-2 x_8 - 1 x_9 - 1 x_10 - 2 x_11 + 1 y_8 + 1 y_9 + 0 y_10 + 1 y_11 + 5 u_4 - 1 u_5 >= 0
-8 x_8 - 4 x_9 - 4 x_10 + 6 x_11 - 1 y_8 + 2 y_9 - 1 y_10 + 0 y_11 + 10 u_4 + 7 u_5 >= 0
0 x_8 + 1 x_9 + 1 x_10 - 1 x_11 + 1 y_8 - 1 y_9 + 1 y_10 - 1 y_11 + 2 u_4 - 1 u_5 >= 0
3 x_8 + 2 x_9 + 1 x_10 + 0 x_11 + 2 y_8 + 4 y_9 + 2 y_10 + 4 y_11 - 6 u_4 + 1 u_5 >= 0
0 x_8 + 3 x_9 - 3 x_10 + 1 x_11 - 1 y_8 - 1 y_9 - 2 y_10 - 2 y_11 + 6 u_4 + 1 u_5 >= 0
1 x_8 - 2 x_9 + 3 x_10 + 2 x_11 + 1 y_8 + 3 y_9 - 2 y_10 - 2 y_11 + 2 u_4 + 1 u_5 >= 0
0 x_8 - 3 x_9 - 3 x_10 - 2 x_11 - 1 y_8 + 2 y_9 - 1 y_10 - 2 y_11 + 10 u_4 - 1 u_5 >= 0
-1 x_8 + 2 x_9 + 2 x_10 + 5 x_11 + 1 y_8 - 1 y_9 + 1 y_10 + 3 y_11 - 3 u_4 + 1 u_5 >= 0
-1 x_8 + 0 x_9 - 1 x_10 - 1 x_11 - 1 y_8 + 0 y_9 + 1 y_10 + 1 y_11 + 4 u_4 - 1 u_5 >= 0
0 x_8 + 2 x_9 - 2 x_10 + 1 x_11 - 1 y_8 + 1 y_9 + 0 y_10 - 1 y_11 + 2 u_4 + 1 u_5 >= 0
3 x_8 + 1 x_9 + 1 x_10 - 3 x_11 - 2 y_8 - 3 y_9 - 2 y_10 + 1 y_11 + 7 u_4 - 1 u_5 >= 0
-3 x_8 - 1 x_9 + 2 x_10 - 2 x_11 - 2 y_8 + 0 y_9 + 2 y_10 - 1 y_11 + 5 u_4 + 2 u_5 >= 0
0 x_8 - 2 x_9 + 2 x_10 + 1 x_11 - 2 y_8 - 1 y_9 + 0 y_10 - 1 y_11 + 4 u_4 + 1 u_5 >= 0
0 x_12 - 1 x_13 - 1 x_14 - 1 x_15 - 2 y_12 - 2 y_13 - 2 y_14 - 1 y_15 + 10 u_6 - 3 u_7 >= 0
4 x_12 + 2 x_13 + 2 x_14 + 5 x_15 + 1 y_12 + 4 y_13 + 1 y_14 + 6 y_15 - 12 u_6 + 8 u_7 >= 0
3 x_12 + 4 x_13 + 4 x_14 + 2 x_15 + 2 y_12 + 0 y_13 + 2 y_14 + 1 y_15 - 5 u_6 - 1 u_7 >= 0
-1 x_12 - 8 x_13 + 7 x_14 - 3 x_15 - 2 y_12 + 4 y_13 - 2 y_14 - 9 y_15 + 14 u_6 + 11 u_7 >= 0
-5 x_12 + 4 x_13 - 2 x_14 - 3 x_15 + 3 y_12 + 1 y_13 - 3 y_14 - 1 y_15 + 7 u_6 + 4 u_7 >= 0
0 x_12 - 1 x_13 - 1 x_14 + 1 x_15 + 2 y_12 + 0 y_13 + 2 y_14 + 0 y_15 + 1 u_6 - 1 u_7 >= 0
-1 x_12 + 1 x_13 - 2 x_14 + 2 x_15 - 5 y_12 - 4 y_13 + 3 y_14 + 1 y_15 + 6 u_6 + 5 u_7 >= 0
1 x_12 - 5 x_13 + 2 x_14 - 2 x_15 + 3 y_12 - 5 y_13 - 3 y_14 + 1 y_15 + 9 u_6 + 4 u_7 >= 0
3 x_12 + 2 x_13 - 5 x_14 - 3 x_15 - 2 y_12 - 1 y_13 + 3 y_14 - 1 y_15 + 7 u_6 + 2 u_7 >= 0
1 x_12 + 2 x_13 + 2 x_14 + 0 x_15 - 1 y_12 + 0 y_13 - 1 y_14 + 0 y_15 + 1 u_6 - 1 u_7 >= 0
-3 x_12 - 2 x_13 + 1 x_14 - 2 x_15 - 2 y_12 - 1 y_13 + 3 y_14 - 1 y_15 + 7 u_6 + 1 u_7 >= 0
1 x_12 - 1 x_13 - 1 x_14 + 1 x_15 - 1 y_12 + 0 y_13 - 1 y_14 - 1 y_15 + 5 u_6 - 2 u_7 >= 0
-2 x_12 - 1 x_13 - 1 x_14 - 2 x_15 + 1 y_12 + 1 y_13 + 0 y_14 + 1 y_15 + 5 u_6 - 1 u_7 >= 0
-8 x_12 - 4 x_13 - 4 x_14 + 6 x_15 - 1 y_12 + 2 y_13 - 1 y_14 + 0 y_15 + 10 u_6 + 7 u_7 >= 0
0 x_12 + 1 x_13 + 1 x_14 - 1 x_15 + 1 y_12 - 1 y_13 + 1 y_14 - 1 y_15 + 2 u_6 - 1 u_7 >= 0
3 x_12 + 2 x_13 + 1 x_14 + 0 x_15 + 2 y_12 + 4 y_13 + 2 y_14 + 4 y_15 - 6 u_6 + 1 u_7 >= 0
0 x_12 + 3 x_13 - 3 x_14 + 1 x_15 - 1 y_12 - 1 y_13 - 2 y_14 - 2 y_15 + 6 u_6 + 1 u_7 >= 0
1 x_12 - 2 x_13 + 3 x_14 + 2 x_15 + 1 y_12 + 3 y_13 - 2 y_14 - 2 y_15 + 2 u_6 + 1 u_7 >= 0
0 x_12 - 3 x_13 - 3 x_14 - 2 x_15 - 1 y_12 + 2 y_13 - 1 y_14 - 2 y_15 + 10 u_6 - 1 u_7 >= 0
-1 x_12 + 2 x_13 + 2 x_14 + 5 x_15 + 1 y_12 - 1 y_13 + 1 y_14 + 3 y_15 - 3 u_6 + 1 u_7 >= 0
-1 x_12 + 0 x_13 - 1 x_14 - 1 x_15 - 1 y_12 + 0 y_13 + 1 y_14 + 1 y_15 + 4 u_6 - 1 u_7 >= 0
0 x_12 + 2 x_13 - 2 x_14 + 1 x_15 - 1 y_12 + 1 y_13 + 0 y_14 - 1 y_15 + 2 u_6 + 1 u_7 >= 0
3 x_12 + 1 x_13 + 1 x_14 - 3 x_15 - 2 y_12 - 3 y_13 - 2 y_14 + 1 y_15 + 7 u_6 - 1 u_7 >= 0
-3 x_12 - 1 x_13 + 2 x_14 - 2 x_15 - 2 y_12 + 0 y_13 + 2 y_14 - 1 y_15 + 5 u_6 + 2 u_7 >= 0
0 x_12 - 2 x_13 + 2 x_14 + 1 x_15 - 2 y_12 - 1 y_13 + 0 y_14 - 1 y_15 + 4 u_6 + 1 u_7 >= 0
0 x_16 - 1 x_17 - 1 x_18 - 1 x_19 - 2 y_16 - 2 y_17 - 2 y_18 - 1 y_19 + 10 u_8 - 3 u_9 >= 0
4 x_16 + 2 x_17 + 2 x_18 + 5 x_19 + 1 y_16 + 4 y_17 + 1 y_18 + 6 y_19 - 12 u_8 + 8 u_9 >= 0
3 x_16 + 4 x_17 + 4 x_18 + 2 x_19 + 2 y_16 + 0 y_17 + 2 y_18 + 1 y_19 - 5 u_8 - 1 u_9 >= 0
-1 x_16 - 8 x_17 + 7 x_18 - 3 x_19 - 2 y_16 + 4 y_17 - 2 y_18 - 9 y_19 + 14 u_8 + 11 u_9 >= 0
-5 x_16 + 4 x_17 - 2 x_18 - 3 x_19 + 3 y_16 + 1 y_17 - 3 y_18 - 1 y_19 + 7 u_8 + 4 u_9 >= 0
0 x_16 - 1 x_17 - 1 x_18 + 1 x_19 + 2 y_16 + 0 y_17 + 2 y_18 + 0 y_19 + 1 u_8 - 1 u_9 >= 0
-1 x_16 + 1 x_17 - 2 x_18 + 2 x_19 - 5 y_16 - 4 y_17 + 3 y_18 + 1 y_19 + 6 u_8 + 5 u_9 >= 0
1 x_16 - 5 x_17 + 2 x_18 - 2 x_19 + 3 y_16 - 5 y_17 - 3 y_18 + 1 y_19 + 9 u_8 + 4 u_9 >= 0
3 x_16 + 2 x_17 - 5 x_18 - 3 x_19 - 2 y_16 - 1 y_17 + 3 y_18 - 1 y_19 + 7 u_8 + 2 u_9 >= 0
1 x_16 + 2 x_17 + 2 x_18 + 0 x_19 - 1 y_16 + 0 y_17 - 1 y_18 + 0 y_19 + 1 u_8 - 1 u_9 >= 0
-3 x_16 - 2 x_17 + 1 x_18 - 2 x_19 - 2 y_16 - 1 y_17 + 3 y_18 - 1 y_19 + 7 u_8 + 1 u_9 >= 0
1 x_16 - 1 x_17 - 1 x_18 + 1 x_19 - 1 y_16 + 0 y_17 - 1 y_18 - 1 y_19 + 5 u_8 - 2 u_9 >= 0
-2 x_16 - 1 x_17 - 1 x_18 - 2 x_19 + 1 y_16 + 1 y_17 + 0 y_18 + 1 y_19 + 5 u_8 - 1 u_9 >= 0
-8 x_16 - 4 x_17 - 4 x_18 + 6 x_19 - 1 y_16 + 2 y_17 - 1 y_18 + 0 y_19 + 10 u_8 + 7 u_9 >= 0
0 x_16 + 1 x_17 + 1 x_18 - 1 x_19 + 1 y_16 - 1 y_17 + 1 y_18 - 1 y_19 + 2 u_8 - 1 u_9 >= 0
3 x_16 + 2 x_17 + 1 x_18 + 0 x_19 + 2 y_16 + 4 y_17 + 2 y_18 + 4 y_19 - 6 u_8 + 1 u_9 >= 0
0 x_16 + 3 x_17 - 3 x_18 + 1 x_19 - 1 y_16 - 1 y_17 - 2 y_18 - 2 y_19 + 6 u_8 + 1 u_9 >= 0
1 x_16 - 2 x_17 + 3 x_18 + 2 x_19 + 1 y_16 + 3 y_17 - 2 y_18 - 2 y_19 + 2 u_8 + 1 u_9 >= 0
0 x_16 - 3 x_17 - 3 x_18 - 2 x_19 - 1 y_16 + 2 y_17 - 1 y_18 - 2 y_19 + 10 u_8 - 1 u_9 >= 0
-1 x_16 + 2 x_17 + 2 x_18 + 5 x_19 + 1 y_16 - 1 y_17 + 1 y_18 + 3 y_19 - 3 u_8 + 1 u_9 >= 0
-1 x_16 + 0 x_17 - 1 x_18 - 1 x_19 - 1 y_16 + 0 y_17 + 1 y_18 + 1 y_19 + 4 u_8 - 1 u_9 >= 0
0 x_16 + 2 x_17 - 2 x_18 + 1 x_19 - 1 y_16 + 1 y_17 + 0 y_18 - 1 y_19 + 2 u_8 + 1 u_9 >= 0
3 x_16 + 1 x_17 + 1 x_18 - 3 x_19 - 2 y_16 - 3 y_17 - 2 y_18 + 1 y_19 + 7 u_8 - 1 u_9 >= 0
-3 x_16 - 1 x_17 + 2 x_18 - 2 x_19 - 2 y_16 + 0 y_17 + 2 y_18 - 1 y_19 + 5 u_8 + 2 u_9 >= 0
0 x_16 - 2 x_17 + 2 x_18 + 1 x_19 - 2 y_16 - 1 y_17 + 0 y_18 - 1 y_19 + 4 u_8 + 1 u_9 >= 0
0 x_20 - 1 x_21 - 1 x_22 - 1 x_23 - 2 y_20 - 2 y_21 - 2 y_22 - 1 y_23 + 10 u_10 - 3 u_11 >= 0
4 x_20 + 2 x_21 + 2 x_22 + 5 x_23 + 1 y_20 + 4 y_21 + 1 y_22 + 6 y_23 - 12 u_10 + 8 u_11 >= 0
3 x_20 + 4 x_21 + 4 x_22 + 2 x_23 + 2 y_20 + 0 y_21 + 2 y_22 + 1 y_23 - 5 u_10 - 1 u_11 >= 0
-1 x_20 - 8 x_21 + 7 x_22 - 3 x_23 - 2 y_20 + 4 y_21 - 2 y_22 - 9 y_23 + 14 u_10 + 11 u_11 >= 0
-5 x_20 + 4 x_21 - 2 x_22 - 3 x_23 + 3 y_20 + 1 y_21 - 3 y_22 - 1 y_23 + 7 u_10 + 4 u_11 >= 0
0 x_20 - 1 x_21 - 1 x_22 + 1 x_23 + 2 y_20 + 0 y_21 + 2 y_22 + 0 y_23 + 1 u_10 - 1 u_11 >= 0
-1 x_20 + 1 x_21 - 2 x_22 + 2 x_23 - 5 y_20 - 4 y_21 + 3 y_22 + 1 y_23 + 6 u_10 + 5 u_11 >= 0
1 x_20 - 5 x_21 + 2 x_22 - 2 x_23 + 3 y_20 - 5 y_21 - 3 y_22 + 1 y_23 + 9 u_10 + 4 u_11 >= 0
3 x_20 + 2 x_21 - 5 x_22 - 3 x_23 - 2 y_20 - 1 y_21 + 3 y_22 - 1 y_23 + 7 u_10 + 2 u_11 >= 0
1 x_20 + 2 x_21 + 2 x_22 + 0 x_23 - 1 y_20 + 0 y_21 - 1 y_22 + 0 y_23 + 1 u_10 - 1 u_11 >= 0
-3 x_20 - 2 x_21 + 1 x_22 - 2 x_23 - 2 y_20 - 1 y_21 + 3 y_22 - 1 y_23 + 7 u_10 + 1 u_11 >= 0
1 x_20 - 1 x_21 - 1 x_22 + 1 x_23 - 1 y_20 + 0 y_21 - 1 y_22 - 1 y_23 + 5 u_10 - 2 u_11 >= 0
-2 x_20 - 1 x_21 - 1 x_22 - 2 x_23 + 1 y_20 + 1 y_21 + 0 y_22 + 1 y_23 + 5 u_10 - 1 u_11 >= 0
-8 x_20 - 4 x_21 - 4 x_22 + 6 x_23 - 1 y_20 + 2 y_21 - 1 y_22 + 0 y_23 + 10 u_10 + 7 u_11 >= 0
0 x_20 + 1 x_21 + 1 x_22 - 1 x_23 + 1 y_20 - 1 y_21 + 1 y_22 - 1 y_23 + 2 u_10 - 1 u_11 >= 0
3 x_20 + 2 x_21 + 1 x_22 + 0 x_23 + 2 y_20 + 4 y_21 + 2 y_22 + 4 y_23 - 6 u_10 + 1 u_11 >= 0
0 x_20 + 3 x_21 - 3 x_22 + 1 x_23 - 1 y_20 - 1 y_21 - 2 y_22 - 2 y_23 + 6 u_10 + 1 u_11 >= 0
1 x_20 - 2 x_21 + 3 x_22 + 2 x_23 + 1 y_20 + 3 y_21 - 2 y_22 - 2 y_23 + 2 u_10 + 1 u_11 >= 0
0 x_20 - 3 x_21 - 3 x_22 - 2 x_23 - 1 y_20 + 2 y_21 - 1 y_22 - 2 y_23 + 10 u_10 - 1 u_11 >= 0
-1 x_20 + 2 x_21 + 2 x_22 + 5 x_23 + 1 y_20 - 1 y_21 + 1 y_22 + 3 y_23 - 3 u_10 + 1 u_11 >= 0
-1 x_20 + 0 x_21 - 1 x_22 - 1 x_23 - 1 y_20 + 0 y_21 + 1 y_22 + 1 y_23 + 4 u_10 - 1 u_11 >= 0
0 x_20 + 2 x_21 - 2 x_22 + 1 x_23 - 1 y_20 + 1 y_21 + 0 y_22 - 1 y_23 + 2 u_10 + 1 u_11 >= 0
3 x_20 + 1 x_21 + 1 x_22 - 3 x_23 - 2 y_20 - 3 y_21 - 2 y_22 + 1 y_23 + 7 u_10 - 1 u_11 >= 0
-3 x_20 - 1 x_21 + 2 x_22 - 2 x_23 - 2 y_20 + 0 y_21 + 2 y_22 - 1 y_23 + 5 u_10 + 2 u_11 >= 0
0 x_20 - 2 x_21 + 2 x_22 + 1 x_23 - 2 y_20 - 1 y_21 + 0 y_22 - 1 y_23 + 4 u_10 + 1 u_11 >= 0
0 x_24 - 1 x_25 - 1 x_26 - 1 x_27 - 2 y_24 - 2 y_25 - 2 y_26 - 1 y_27 + 10 u_12 - 3 u_13 >= 0
4 x_24 + 2 x_25 + 2 x_26 + 5 x_27 + 1 y_24 + 4 y_25 + 1 y_26 + 6 y_27 - 12 u_12 + 8 u_13 >= 0
3 x_24 + 4 x_25 + 4 x_26 + 2 x_27 + 2 y_24 + 0 y_25 + 2 y_26 + 1 y_27 - 5 u_12 - 1 u_13 >= 0
-1 x_24 - 8 x_25 + 7 x_26 - 3 x_27 - 2 y_24 + 4 y_25 - 2 y_26 - 9 y_27 + 14 u_12 + 11 u_13 >= 0
-5 x_24 + 4 x_25 - 2 x_26 - 3 x_27 + 3 y_24 + 1 y_25 - 3 y_26 - 1 y_27 + 7 u_12 + 4 u_13 >= 0
0 x_24 - 1 x_25 - 1 x_26 + 1 x_27 + 2 y_24 + 0 y_25 + 2 y_26 + 0 y_27 + 1 u_12 - 1 u_13 >= 0
-1 x_24 + 1 x_25 - 2 x_26 + 2 x_27 - 5 y_24 - 4 y_25 + 3 y_26 + 1 y_27 + 6 u_12 + 5 u_13 >= 0
1 x_24 - 5 x_25 + 2 x_26 - 2 x_27 + 3 y_24 - 5 y_25 - 3 y_26 + 1 y_27 + 9 u_12 + 4 u_13 >= 0
3 x_24 + 2 x_25 - 5 x_26 - 3 x_27 - 2 y_24 - 1 y_25 + 3 y_26 - 1 y_27 + 7 u_12 + 2 u_13 >= 0
1 x_24 + 2 x_25 + 2 x_26 + 0 x_27 - 1 y_24 + 0 y_25 - 1 y_26 + 0 y_27 + 1 u_12 - 1 u_13 >= 0
-3 x_24 - 2 x_25 + 1 x_26 - 2 x_27 - 2 y_24 - 1 y_25 + 3 y_26 - 1 y_27 + 7 u_12 + 1 u_13 >= 0
1 x_24 - 1 x_25 - 1 x_26 + 1 x_27 - 1 y_24 + 0 y_25 - 1 y_26 - 1 y_27 + 5 u_12 - 2 u_13 >= 0
-2 x_24 - 1 x_25 - 1 x_26 - 2 x_27 + 1 y_24 + 1 y_25 + 0 y_26 + 1 y_27 + 5 u_12 - 1 u_13 >= 0
-8 x_24 - 4 x_25 - 4 x_26 + 6 x_27 - 1 y_24 + 2 y_25 - 1 y_26 + 0 y_27 + 10 u_12 + 7 u_13 >= 0
0 x_24 + 1 x_25 + 1 x_26 - 1 x_27 + 1 y_24 - 1 y_25 + 1 y_26 - 1 y_27 + 2 u_12 - 1 u_13 >= 0
3 x_24 + 2 x_25 + 1 x_26 + 0 x_27 + 2 y_24 + 4 y_25 + 2 y_26 + 4 y_27 - 6 u_12 + 1 u_13 >= 0
0 x_24 + 3 x_25 - 3 x_26 + 1 x_27 - 1 y_24 - 1 y_25 - 2 y_26 - 2 y_27 + 6 u_12 + 1 u_13 >= 0
1 x_24 - 2 x_25 + 3 x_26 + 2 x_27 + 1 y_24 + 3 y_25 - 2 y_26 - 2 y_27 + 2 u_12 + 1 u_13 >= 0
0 x_24 - 3 x_25 - 3 x_26 - 2 x_27 - 1 y_24 + 2 y_25 - 1 y_26 - 2 y_27 + 10 u_12 - 1 u_13 >= 0
-1 x_24 + 2 x_25 + 2 x_26 + 5 x_27 + 1 y_24 - 1 y_25 + 1 y_26 + 3 y_27 - 3 u_12 + 1 u_13 >= 0
-1 x_24 + 0 x_25 - 1 x_26 - 1 x_27 - 1 y_24 + 0 y_25 + 1 y_26 + 1 y_27 + 4 u_12 - 1 u_13 >= 0
0 x_24 + 2 x_25 - 2 x_26 + 1 x_27 - 1 y_24 + 1 y_25 + 0 y_26 - 1 y_27 + 2 u_12 + 1 u_13 >= 0
3 x_24 + 1 x_25 + 1 x_26 - 3 x_27 - 2 y_24 - 3 y_25 - 2 y_26 + 1 y_27 + 7 u_12 - 1 u_13 >= 0
-3 x_24 - 1 x_25 + 2 x_26 - 2 x_27 - 2 y_24 + 0 y_25 + 2 y_26 - 1 y_27 + 5 u_12 + 2 u_13 >= 0
0 x_24 - 2 x_25 + 2 x_26 + 1 x_27 - 2 y_24 - 1 y_25 + 0 y_26 - 1 y_27 + 4 u_12 + 1 u_13 >= 0
0 x_28 - 1 x_29 - 1 x_30 - 1 x_31 - 2 y_28 - 2 y_29 - 2 y_30 - 1 y_31 + 10 u_14 - 3 u_15 >= 0
4 x_28 + 2 x_29 + 2 x_30 + 5 x_31 + 1 y_28 + 4 y_29 + 1 y_30 + 6 y_31 - 12 u_14 + 8 u_15 >= 0
3 x_28 + 4 x_29 + 4 x_30 + 2 x_31 + 2 y_28 + 0 y_29 + 2 y_30 + 1 y_31 - 5 u_14 - 1 u_15 >= 0
-1 x_28 - 8 x_29 + 7 x_30 - 3 x_31 - 2 y_28 + 4 y_29 - 2 y_30 - 9 y_31 + 14 u_14 + 11 u_15 >= 0
-5 x_28 + 4 x_29 - 2 x_30 - 3 x_31 + 3 y_28 + 1 y_29 - 3 y_30 - 1 y_31 + 7 u_14 + 4 u_15 >= 0
0 x_28 - 1 x_29 - 1 x_30 + 1 x_31 + 2 y_28 + 0 y_29 + 2 y_30 + 0 y_31 + 1 u_14 - 1 u_15 >= 0
-1 x_28 + 1 x_29 - 2 x_30 + 2 x_31 - 5 y_28 - 4 y_29 + 3 y_30 + 1 y_31 + 6 u_14 + 5 u_15 >= 0
1 x_28 - 5 x_29 + 2 x_30 - 2 x_31 + 3 y_28 - 5 y_29 - 3 y_30 + 1 y_31 + 9 u_14 + 4 u_15 >= 0
3 x_28 + 2 x_29 - 5 x_30 - 3 x_31 - 2 y_28 - 1 y_29 + 3 y_30 - 1 y_31 + 7 u_14 + 2 u_15 >= 0
1 x_28 + 2 x_29 + 2 x_30 + 0 x_31 - 1 y_28 + 0 y_29 - 1 y_30 + 0 y_31 + 1 u_14 - 1 u_15 >= 0
-3 x_28 - 2 x_29 + 1 x_30 - 2 x_31 - 2 y_28 - 1 y_29 + 3 y_30 - 1 y_31 + 7 u_14 + 1 u_15 >= 0
1 x_28 - 1 x_29 - 1 x_30 + 1 x_31 - 1 y_28 + 0 y_29 - 1 y_30 - 1 y_31 + 5 u_14 - 2 u_15 >= 0
-2 x_28 - 1 x_29 - 1 x_30 - 2 x_31 + 1 y_28 + 1 y_29 + 0 y_30 + 1 y_31 + 5 u_14 - 1 u_15 >= 0
-8 x_28 - 4 x_29 - 4 x_30 + 6 x_31 - 1 y_28 + 2 y_29 - 1 y_30 + 0 y_31 + 10 u_14 + 7 u_15 >= 0
0 x_28 + 1 x_29 + 1 x_30 - 1 x_31 + 1 y_28 - 1 y_29 + 1 y_30 - 1 y_31 + 2 u_14 - 1 u_15 >= 0
3 x_28 + 2 x_29 + 1 x_30 + 0 x_31 + 2 y_28 + 4 y_29 + 2 y_30 + 4 y_31 - 6 u_14 + 1 u_15 >= 0
0 x_28 + 3 x_29 - 3 x_30 + 1 x_31 - 1 y_28 - 1 y_29 - 2 y_30 - 2 y_31 + 6 u_14 + 1 u_15 >= 0
1 x_28 - 2 x_29 + 3 x_30 + 2 x_31 + 1 y_28 + 3 y_29 - 2 y_30 - 2 y_31 + 2 u_14 + 1 u_15 >= 0
0 x_28 - 3 x_29 - 3 x_30 - 2 x_31 - 1 y_28 + 2 y_29 - 1 y_30 - 2 y_31 + 10 u_14 - 1 u_15 >= 0
-1 x_28 + 2 x_29 + 2 x_30 + 5 x_31 + 1 y_28 - 1 y_29 + 1 y_30 + 3 y_31 - 3 u_14 + 1 u_15 >= 0
-1 x_28 + 0 x_29 - 1 x_30 - 1 x_31 - 1 y_28 + 0 y_29 + 1 y_30 + 1 y_31 + 4 u_14 - 1 u_15 >= 0
0 x_28 + 2 x_29 - 2 x_30 + 1 x_31 - 1 y_28 + 1 y_29 + 0 y_30 - 1 y_31 + 2 u_14 + 1 u_15 >= 0
3 x_28 + 1 x_29 + 1 x_30 - 3 x_31 - 2 y_28 - 3 y_29 - 2 y_30 + 1 y_31 + 7 u_14 - 1 u_15 >= 0
-3 x_28 - 1 x_29 + 2 x_30 - 2 x_31 - 2 y_28 + 0 y_29 + 2 y_30 - 1 y_31 + 5 u_14 + 2 u_15 >= 0
0 x_28 - 2 x_29 + 2 x_30 + 1 x_31 - 2 y_28 - 1 y_29 + 0 y_30 - 1 y_31 + 4 u_14 + 1 u_15 >= 0
0 x_32 - 1 x_33 - 1 x_34 - 1 x_35 - 2 y_32 - 2 y_33 - 2 y_34 - 1 y_35 + 10 u_16 - 3 u_17 >= 0
4 x_32 + 2 x_33 + 2 x_34 + 5 x_35 + 1 y_32 + 4 y_33 + 1 y_34 + 6 y_35 - 12 u_16 + 8 u_17 >= 0
3 x_32 + 4 x_33 + 4 x_34 + 2 x_35 + 2 y_32 + 0 y_33 + 2 y_34 + 1 y_35 - 5 u_16 - 1 u_17 >= 0
-1 x_32 - 8 x_33 + 7 x_34 - 3 x_35 - 2 y_32 + 4 y_33 - 2 y_34 - 9 y_35 + 14 u_16 + 11 u_17 >= 0
-5 x_32 + 4 x_33 - 2 x_34 - 3 x_35 + 3 y_32 + 1 y_33 - 3 y_34 - 1 y_35 + 7 u_16 + 4 u_17 >= 0
0 x_32 - 1 x_33 - 1 x_34 + 1 x_35 + 2 y_32 + 0 y_33 + 2 y_34 + 0 y_35 + 1 u_16 - 1 u_17 >= 0
-1 x_32 + 1 x_33 - 2 x_34 + 2 x_35 - 5 y_32 - 4 y_33 + 3 y_34 + 1 y_35 + 6 u_16 + 5 u_17 >= 0
1 x_32 - 5 x_33 + 2 x_34 - 2 x_35 + 3 y_32 - 5 y_33 - 3 y_34 + 1 y_35 + 9 u_16 + 4 u_17 >= 0
3 x_32 + 2 x_33 - 5 x_34 - 3 x_35 - 2 y_32 - 1 y_33 + 3 y_34 - 1 y_35 + 7 u_16 + 2 u_17 >= 0
1 x_32 + 2 x_33 + 2 x_34 + 0 x_35 - 1 y_32 + 0 y_33 - 1 y_34 + 0 y_35 + 1 u_16 - 1 u_17 >= 0
-3 x_32 - 2 x_33 + 1 x_34 - 2 x_35 - 2 y_32 - 1 y_33 + 3 y_34 - 1 y_35 + 7 u_16 + 1 u_17 >= 0
1 x_32 - 1 x_33 - 1 x_34 + 1 x_35 - 1 y_32 + 0 y_33 - 1 y_34 - 1 y_35 + 5 u_16 - 2 u_17 >= 0
-2 x_32 - 1 x_33 - 1 x_34 - 2 x_35 + 1 y_32 + 1 y_33 + 0 y_34 + 1 y_35 + 5 u_16 - 1 u_17 >= 0
-8 x_32 - 4 x_33 - 4 x_34 + 6 x_35 - 1 y_32 + 2 y_33 - 1 y_34 + 0 y_35 + 10 u_16 + 7 u_17 >= 0
0 x_32 + 1 x_33 + 1 x_34 - 1 x_35 + 1 y_32 - 1 y_33 + 1 y_34 - 1 y_35 + 2 u_16 - 1 u_17 >= 0
3 x_32 + 2 x_33 + 1 x_34 + 0 x_35 + 2 y_32 + 4 y_33 + 2 y_34 + 4 y_35 - 6 u_16 + 1 u_17 >= 0
0 x_32 + 3 x_33 - 3 x_34 + 1 x_35 - 1 y_32 - 1 y_33 - 2 y_34 - 2 y_35 + 6 u_16 + 1 u_17 >= 0
1 x_32 - 2 x_33 + 3 x_34 + 2 x_35 + 1 y_32 + 3 y_33 - 2 y_34 - 2 y_35 + 2 u_16 + 1 u_17 >= 0
0 x_32 - 3 x_33 - 3 x_34 - 2 x_35 - 1 y_32 + 2 y_33 - 1 y_34 - 2 y_35 + 10 u_16 - 1 u_17 >= 0
-1 x_32 + 2 x_33 + 2 x_34 + 5 x_35 + 1 y_32 - 1 y_33 + 1 y_34 + 3 y_35 - 3 u_16 + 1 u_17 >= 0
-1 x_32 + 0 x_33 - 1 x_34 - 1 x_35 - 1 y_32 + 0 y_33 + 1 y_34 + 1 y_35 + 4 u_16 - 1 u_17 >= 0
0 x_32 + 2 x_33 - 2 x_34 + 1 x_35 - 1 y_32 + 1 y_33 + 0 y_34 - 1 y_35 + 2 u_16 + 1 u_17 >= 0
3 x_32 + 1 x_33 + 1 x_34 - 3 x_35 - 2 y_32 - 3 y_33 - 2 y_34 + 1 y_35 + 7 u_16 - 1 u_17 >= 0
-3 x_32 - 1 x_33 + 2 x_34 - 2 x_35 - 2 y_32 + 0 y_33 + 2 y_34 - 1 y_35 + 5 u_16 + 2 u_17 >= 0
0 x_32 - 2 x_33 + 2 x_34 + 1 x_35 - 2 y_32 - 1 y_33 + 0 y_34 - 1 y_35 + 4 u_16 + 1 u_17 >= 0
0 x_36 - 1 x_37 - 1 x_38 - 1 x_39 - 2 y_36 - 2 y_37 - 2 y_38 - 1 y_39 + 10 u_18 - 3 u_19 >= 0
4 x_36 + 2 x_37 + 2 x_38 + 5 x_39 + 1 y_36 + 4 y_37 + 1 y_38 + 6 y_39 - 12 u_18 + 8 u_19 >= 0
3 x_36 + 4 x_37 + 4 x_38 + 2 x_39 + 2 y_36 + 0 y_37 + 2 y_38 + 1 y_39 - 5 u_18 - 1 u_19 >= 0
-1 x_36 - 8 x_37 + 7 x_38 - 3 x_39 - 2 y_36 + 4 y_37 - 2 y_38 - 9 y_39 + 14 u_18 + 11 u_19 >= 0
-5 x_36 + 4 x_37 - 2 x_38 - 3 x_39 + 3 y_36 + 1 y_37 - 3 y_38 - 1 y_39 + 7 u_18 + 4 u_19 >= 0
0 x_36 - 1 x_37 - 1 x_38 + 1 x_39 + 2 y_36 + 0 y_37 + 2 y_38 + 0 y_39 + 1 u_18 - 1 u_19 >= 0
-1 x_36 + 1 x_37 - 2 x_38 + 2 x_39 - 5 y_36 - 4 y_37 + 3 y_38 + 1 y_39 + 6 u_18 + 5 u_19 >= 0
1 x_36 - 5 x_37 + 2 x_38 - 2 x_39 + 3 y_36 - 5 y_37 - 3 y_38 + 1 y_39 + 9 u_18 + 4 u_19 >= 0
3 x_36 + 2 x_37 - 5 x_38 - 3 x_39 - 2 y_36 - 1 y_37 + 3 y_38 - 1 y_39 + 7 u_18 + 2 u_19 >= 0
1 x_36 + 2 x_37 + 2 x_38 + 0 x_39 - 1 y_36 + 0 y_37 - 1 y_38 + 0 y_39 + 1 u_18 - 1 u_19 >= 0
-3 x_36 - 2 x_37 + 1 x_38 - 2 x_39 - 2 y_36 - 1 y_37 + 3 y_38 - 1 y_39 + 7 u_18 + 1 u_19 >= 0
1 x_36 - 1 x_37 - 1 x_38 + 1 x_39 - 1 y_36 + 0 y_37 - 1 y_38 - 1 y_39 + 5 u_18 - 2 u_19 >= 0
-2 x_36 - 1 x_37 - 1 x_38 - 2 x_39 + 1 y_36 + 1 y_37 + 0 y_38 + 1 y_39 + 5 u_18 - 1 u_19 >= 0
-8 x_36 - 4 x_37 - 4 x_38 + 6 x_39 - 1 y_36 + 2 y_37 - 1 y_38 + 0 y_39 + 10 u_18 + 7 u_19 >= 0
0 x_36 + 1 x_37 + 1 x_38 - 1 x_39 + 1 y_36 - 1 y_37 + 1 y_38 - 1 y_39 + 2 u_18 - 1 u_19 >= 0
3 x_36 + 2 x_37 + 1 x_38 + 0 x_39 + 2 y_36 + 4 y_37 + 2 y_38 + 4 y_39 - 6 u_18 + 1 u_19 >= 0
0 x_36 + 3 x_37 - 3 x_38 + 1 x_39 - 1 y_36 - 1 y_37 - 2 y_38 - 2 y_39 + 6 u_18 + 1 u_19 >= 0
1 x_36 - 2 x_37 + 3 x_38 + 2 x_39 + 1 y_36 + 3 y_37 - 2 y_38 - 2 y_39 + 2 u_18 + 1 u_19 >= 0
0 x_36 - 3 x_37 - 3 x_38 - 2 x_39 - 1 y_36 + 2 y_37 - 1 y_38 - 2 y_39 + 10 u_18 - 1 u_19 >= 0
-1 x_36 + 2 x_37 + 2 x_38 + 5 x_39 + 1 y_36 - 1 y_37 + 1 y_38 + 3 y_39 - 3 u_18 + 1 u_19 >= 0
-1 x_36 + 0 x_37 - 1 x_38 - 1 x_39 - 1 y_36 + 0 y_37 + 1 y_38 + 1 y_39 + 4 u_18 - 1 u_19 >= 0
0 x_36 + 2 x_37 - 2 x_38 + 1 x_39 - 1 y_36 + 1 y_37 + 0 y_38 - 1 y_39 + 2 u_18 + 1 u_19 >= 0
3 x_36 + 1 x_37 + 1 x_38 - 3 x_39 - 2 y_36 - 3 y_37 - 2 y_38 + 1 y_39 + 7 u_18 - 1 u_19 >= 0
-3 x_36 - 1 x_37 + 2 x_38 - 2 x_39 - 2 y_36 + 0 y_37 + 2 y_38 - 1 y_39 + 5 u_18 + 2 u_19 >= 0
0 x_36 - 2 x_37 + 2 x_38 + 1 x_39 - 2 y_36 - 1 y_37 + 0 y_38 - 1 y_39 + 4 u_18 + 1 u_19 >= 0
0 x_40 - 1 x_41 - 1 x_42 - 1 x_43 - 2 y_40 - 2 y_41 - 2 y_42 - 1 y_43 + 10 u_20 - 3 u_21 >= 0
4 x_40 + 2 x_41 + 2 x_42 + 5 x_43 + 1 y_40 + 4 y_41 + 1 y_42 + 6 y_43 - 12 u_20 + 8 u_21 >= 0
3 x_40 + 4 x_41 + 4 x_42 + 2 x_43 + 2 y_40 + 0 y_41 + 2 y_42 + 1 y_43 - 5 u_20 - 1 u_21 >= 0
-1 x_40 - 8 x_41 + 7 x_42 - 3 x_43 - 2 y_40 + 4 y_41 - 2 y_42 - 9 y_43 + 14 u_20 + 11 u_21 >= 0
-5 x_40 + 4 x_41 - 2 x_42 - 3 x_43 + 3 y_40 + 1 y_41 - 3 y_42 - 1 y_43 + 7 u_20 + 4 u_21 >= 0
0 x_40 - 1 x_41 - 1 x_42 + 1 x_43 + 2 y_40 + 0 y_41 + 2 y_42 + 0 y_43 + 1 u_20 - 1 u_21 >= 0
-1 x_40 + 1 x_41 - 2 x_42 + 2 x_43 - 5 y_40 - 4 y_41 + 3 y_42 + 1 y_43 + 6 u_20 + 5 u_21 >= 0
1 x_40 - 5 x_41 + 2 x_42 - 2 x_43 + 3 y_40 - 5 y_41 - 3 y_42 + 1 y_43 + 9 u_20 + 4 u_21 >= 0
3 x_40 + 2 x_41 - 5 x_42 - 3 x_43 - 2 y_40 - 1 y_41 + 3 y_42 - 1 y_43 + 7 u_20 + 2 u_21 >= 0
1 x_40 + 2 x_41 + 2 x_42 + 0 x_43 - 1 y_40 + 0 y_41 - 1 y_42 + 0 y_43 + 1 u_20 - 1 u_21 >= 0
-3 x_40 - 2 x_41 + 1 x_42 - 2 x_43 - 2 y_40 - 1 y_41 + 3 y_42 - 1 y_43 + 7 u_20 + 1 u_21 >= 0
1 x_40 - 1 x_41 - 1 x_42 + 1 x_43 - 1 y_40 + 0 y_41 - 1 y_42 - 1 y_43 + 5 u_20 - 2 u_21 >= 0
-2 x_40 - 1 x_41 - 1 x_42 - 2 x_43 + 1 y_40 + 1 y_41 + 0 y_42 + 1 y_43 + 5 u_20 - 1 u_21 >= 0
-8 x_40 - 4 x_41 - 4 x_42 + 6 x_43 - 1 y_40 + 2 y_41 - 1 y_42 + 0 y_43 + 10 u_20 + 7 u_21 >= 0
0 x_40 + 1 x_41 + 1 x_42 - 1 x_43 + 1 y_40 - 1 y_41 + 1 y_42 - 1 y_43 + 2 u_20 - 1 u_21 >= 0
3 x_40 + 2 x_41 + 1 x_42 + 0 x_43 + 2 y_40 + 4 y_41 + 2 y_42 + 4 y_43 - 6 u_20 + 1 u_21 >= 0
0 x_40 + 3 x_41 - 3 x_42 + 1 x_43 - 1 y_40 - 1 y_41 - 2 y_42 - 2 y_43 + 6 u_20 + 1 u_21 >= 0
1 x_40 - 2 x_41 + 3 x_42 + 2 x_43 + 1 y_40 + 3 y_41 - 2 y_42 - 2 y_43 + 2 u_20 + 1 u_21 >= 0
0 x_40 - 3 x_41 - 3 x_42 - 2 x_43 - 1 y_40 + 2 y_41 - 1 y_42 - 2 y_43 + 10 u_20 - 1 u_21 >= 0
-1 x_40 + 2 x_41 + 2 x_42 + 5 x_43 + 1 y_40 - 1 y_41 + 1 y_42 + 3 y_43 - 3 u_20 + 1 u_21 >= 0
-1 x_40 + 0 x_41 - 1 x_42 - 1 x_43 - 1 y_40 + 0 y_41 + 1 y_42 + 1 y_43 + 4 u_20 - 1 u_21 >= 0
0 x_40 + 2 x_41 - 2 x_42 + 1 x_43 - 1 y_40 + 1 y_41 + 0 y_42 - 1 y_43 + 2 u_20 + 1 u_21 >= 0
3 x_40 + 1 x_41 + 1 x_42 - 3 x_43 - 2 y_40 - 3 y_41 - 2 y_42 + 1 y_43 + 7 u_20 - 1 u_21 >= 0
-3 x_40 - 1 x_41 + 2 x_42 - 2 x_43 - 2 y_40 + 0 y_41 + 2 y_42 - 1 y_43 + 5 u_20 + 2 u_21 >= 0
0 x_40 - 2 x_41 + 2 x_42 + 1 x_43 - 2 y_40 - 1 y_41 + 0 y_42 - 1 y_43 + 4 u_20 + 1 u_21 >= 0
0 x_44 - 1 x_45 - 1 x_46 - 1 x_47 - 2 y_44 - 2 y_45 - 2 y_46 - 1 y_47 + 10 u_22 - 3 u_23 >= 0
4 x_44 + 2 x_45 + 2 x_46 + 5 x_47 + 1 y_44 + 4 y_45 + 1 y_46 + 6 y_47 - 12 u_22 + 8 u_23 >= 0
3 x_44 + 4 x_45 + 4 x_46 + 2 x_47 + 2 y_44 + 0 y_45 + 2 y_46 + 1 y_47 - 5 u_22 - 1 u_23 >= 0
-1 x_44 - 8 x_45 + 7 x_46 - 3 x_47 - 2 y_44 + 4 y_45 - 2 y_46 - 9 y_47 + 14 u_22 + 11 u_23 >= 0
-5 x_44 + 4 x_45 - 2 x_46 - 3 x_47 + 3 y_44 + 1 y_45 - 3 y_46 - 1 y_47 + 7 u_22 + 4 u_23 >= 0
0 x_44 - 1 x_45 - 1 x_46 + 1 x_47 + 2 y_44 + 0 y_45 + 2 y_46 + 0 y_47 + 1 u_22 - 1 u_23 >= 0
-1 x_44 + 1 x_45 - 2 x_46 + 2 x_47 - 5 y_44 - 4 y_45 + 3 y_46 + 1 y_47 + 6 u_22 + 5 u_23 >= 0
1 x_44 - 5 x_45 + 2 x_46 - 2 x_47 + 3 y_44 - 5 y_45 - 3 y_46 + 1 y_47 + 9 u_22 + 4 u_23 >= 0
3 x_44 + 2 x_45 - 5 x_46 - 3 x_47 - 2 y_44 - 1 y_45 + 3 y_46 - 1 y_47 + 7 u_22 + 2 u_23 >= 0
1 x_44 + 2 x_45 + 2 x_46 + 0 x_47 - 1 y_44 + 0 y_45 - 1 y_46 + 0 y_47 + 1 u_22 - 1 u_23 >= 0
-3 x_44 - 2 x_45 + 1 x_46 - 2 x_47 - 2 y_44 - 1 y_45 + 3 y_46 - 1 y_47 + 7 u_22 + 1 u_23 >= 0
1 x_44 - 1 x_45 - 1 x_46 + 1 x_47 - 1 y_44 + 0 y_45 - 1 y_46 - 1 y_47 + 5 u_22 - 2 u_23 >= 0
-2 x_44 - 1 x_45 - 1 x_46 - 2 x_47 + 1 y_44 + 1 y_45 + 0 y_46 + 1 y_47 + 5 u_22 - 1 u_23 >= 0
-8 x_44 - 4 x_45 - 4 x_46 + 6 x_47 - 1 y_44 + 2 y_45 - 1 y_46 + 0 y_47 + 10 u_22 + 7 u_23 >= 0
0 x_44 + 1 x_45 + 1 x_46 - 1 x_47 + 1 y_44 - 1 y_45 + 1 y_46 - 1 y_47 + 2 u_22 - 1 u_23 >= 0
3 x_44 + 2 x_45 + 1 x_46 + 0 x_47 + 2 y_44 + 4 y_45 + 2 y_46 + 4 y_47 - 6 u_22 + 1 u_23 >= 0
0 x_44 + 3 x_45 - 3 x_46 + 1 x_47 - 1 y_44 - 1 y_45 - 2 y_46 - 2 y_47 + 6 u_22 + 1 u_23 >= 0
1 x_44 - 2 x_45 + 3 x_46 + 2 x_47 + 1 y_44 + 3 y_45 - 2 y_46 - 2 y_47 + 2 u_22 + 1 u_23 >= 0
0 x_44 - 3 x_45 - 3 x_46 - 2 x_47 - 1 y_44 + 2 y_45 - 1 y_46 - 2 y_47 + 10 u_22 - 1 u_23 >= 0
-1 x_44 + 2 x_45 + 2 x_46 + 5 x_47 + 1 y_44 - 1 y_45 + 1 y_46 + 3 y_47 - 3 u_22 + 1 u_23 >= 0
-1 x_44 + 0 x_45 - 1 x_46 - 1 x_47 - 1 y_44 + 0 y_45 + 1 y_46 + 1 y_47 + 4 u_22 - 1 u_23 >= 0
0 x_44 + 2 x_45 - 2 x_46 + 1 x_47 - 1 y_44 + 1 y_45 + 0 y_46 - 1 y_47 + 2 u_22 + 1 u_23 >= 0
3 x_44 + 1 x_45 + 1 x_46 - 3 x_47 - 2 y_44 - 3 y_45 - 2 y_46 + 1 y_47 + 7 u_22 - 1 u_23 >= 0
-3 x_44 - 1 x_45 + 2 x_46 - 2 x_47 - 2 y_44 + 0 y_45 + 2 y_46 - 1 y_47 + 5 u_22 + 2 u_23 >= 0
0 x_44 - 2 x_45 + 2 x_46 + 1 x_47 - 2 y_44 - 1 y_45 + 0 y_46 - 1 y_47 + 4 u_22 + 1 u_23 >= 0
0 x_48 - 1 x_49 - 1 x_50 - 1 x_51 - 2 y_48 - 2 y_49 - 2 y_50 - 1 y_51 + 10 u_24 - 3 u_25 >= 0
4 x_48 + 2 x_49 + 2 x_50 + 5 x_51 + 1 y_48 + 4 y_49 + 1 y_50 + 6 y_51 - 12 u_24 + 8 u_25 >= 0
3 x_48 + 4 x_49 + 4 x_50 + 2 x_51 + 2 y_48 + 0 y_49 + 2 y_50 + 1 y_51 - 5 u_24 - 1 u_25 >= 0
-1 x_48 - 8 x_49 + 7 x_50 - 3 x_51 - 2 y_48 + 4 y_49 - 2 y_50 - 9 y_51 + 14 u_24 + 11 u_25 >= 0
-5 x_48 + 4 x_49 - 2 x_50 - 3 x_51 + 3 y_48 + 1 y_49 - 3 y_50 - 1 y_51 + 7 u_24 + 4 u_25 >= 0
0 x_48 - 1 x_49 - 1 x_50 + 1 x_51 + 2 y_48 + 0 y_49 + 2 y_50 + 0 y_51 + 1 u_24 - 1 u_25 >= 0
-1 x_48 + 1 x_49 - 2 x_50 + 2 x_51 - 5 y_48 - 4 y_49 + 3 y_50 + 1 y_51 + 6 u_24 + 5 u_25 >= 0
1 x_48 - 5 x_49 + 2 x_50 - 2 x_51 + 3 y_48 - 5 y_49 - 3 y_50 + 1 y_51 + 9 u_24 + 4 u_25 >= 0
3 x_48 + 2 x_49 - 5 x_50 - 3 x_51 - 2 y_48 - 1 y_49 + 3 y_50 - 1 y_51 + 7 u_24 + 2 u_25 >= 0
1 x_48 + 2 x_49 + 2 x_50 + 0 x_51 - 1 y_48 + 0 y_49 - 1 y_50 + 0 y_51 + 1 u_24 - 1 u_25 >= 0
-3 x_48 - 2 x_49 + 1 x_50 - 2 x_51 - 2 y_48 - 1 y_49 + 3 y_50 - 1 y_51 + 7 u_24 + 1 u_25 >= 0
1 x_48 - 1 x_49 - 1 x_50 + 1 x_51 - 1 y_48 + 0 y_49 - 1 y_50 - 1 y_51 + 5 u_24 - 2 u_25 >= 0
-2 x_48 - 1 x_49 - 1 x_50 - 2 x_51 + 1 y_48 + 1 y_49 + 0 y_50 + 1 y_51 + 5 u_24 - 1 u_25 >= 0
-8 x_48 - 4 x_49 - 4 x_50 + 6 x_51 - 1 y_48 + 2 y_49 - 1 y_50 + 0 y_51 + 10 u_24 + 7 u_25 >= 0
0 x_48 + 1 x_49 + 1 x_50 - 1 x_51 + 1 y_48 - 1 y_49 + 1 y_50 - 1 y_51 + 2 u_24 - 1 u_25 >= 0
3 x_48 + 2 x_49 + 1 x_50 + 0 x_51 + 2 y_48 + 4 y_49 + 2 y_50 + 4 y_51 - 6 u_24 + 1 u_25 >= 0
0 x_48 + 3 x_49 - 3 x_50 + 1 x_51 - 1 y_48 - 1 y_49 - 2 y_50 - 2 y_51 + 6 u_24 + 1 u_25 >= 0
1 x_48 - 2 x_49 + 3 x_50 + 2 x_51 + 1 y_48 + 3 y_49 - 2 y_50 - 2 y_51 + 2 u_24 + 1 u_25 >= 0
0 x_48 - 3 x_49 - 3 x_50 - 2 x_51 - 1 y_48 + 2 y_49 - 1 y_50 - 2 y_51 + 10 u_24 - 1 u_25 >= 0
-1 x_48 + 2 x_49 + 2 x_50 + 5 x_51 + 1 y_48 - 1 y_49 + 1 y_50 + 3 y_51 - 3 u_24 + 1 u_25 >= 0
-1 x_48 + 0 x_49 - 1 x_50 - 1 x_51 - 1 y_48 + 0 y_49 + 1 y_50 + 1 y_51 + 4 u_24 - 1 u_25 >= 0
0 x_48 + 2 x_49 - 2 x_50 + 1 x_51 - 1 y_48 + 1 y_49 + 0 y_50 - 1 y_51 + 2 u_24 + 1 u_25 >= 0
3 x_48 + 1 x_49 + 1 x_50 - 3 x_51 - 2 y_48 - 3 y_49 - 2 y_50 + 1 y_51 + 7 u_24 - 1 u_25 >= 0
-3 x_48 - 1 x_49 + 2 x_50 - 2 x_51 - 2 y_48 + 0 y_49 + 2 y_50 - 1 y_51 + 5 u_24 + 2 u_25 >= 0
0 x_48 - 2 x_49 + 2 x_50 + 1 x_51 - 2 y_48 - 1 y_49 + 0 y_50 - 1 y_51 + 4 u_24 + 1 u_25 >= 0
0 x_52 - 1 x_53 - 1 x_54 - 1 x_55 - 2 y_52 - 2 y_53 - 2 y_54 - 1 y_55 + 10 u_26 - 3 u_27 >= 0
4 x_52 + 2 x_53 + 2 x_54 + 5 x_55 + 1 y_52 + 4 y_53 + 1 y_54 + 6 y_55 - 12 u_26 + 8 u_27 >= 0
3 x_52 + 4 x_53 + 4 x_54 + 2 x_55 + 2 y_52 + 0 y_53 + 2 y_54 + 1 y_55 - 5 u_26 - 1 u_27 >= 0
-1 x_52 - 8 x_53 + 7 x_54 - 3 x_55 - 2 y_52 + 4 y_53 - 2 y_54 - 9 y_55 + 14 u_26 + 11 u_27 >= 0
-5 x_52 + 4 x_53 - 2 x_54 - 3 x_55 + 3 y_52 + 1 y_53 - 3 y_54 - 1 y_55 + 7 u_26 + 4 u_27 >= 0
0 x_52 - 1 x_53 - 1 x_54 + 1 x_55 + 2 y_52 + 0 y_53 + 2 y_54 + 0 y_55 + 1 u_26 - 1 u_27 >= 0
-1 x_52 + 1 x_53 - 2 x_54 + 2 x_55 - 5 y_52 - 4 y_53 + 3 y_54 + 1 y_55 + 6 u_26 + 5 u_27 >= 0
1 x_52 - 5 x_53 + 2 x_54 - 2 x_55 + 3 y_52 - 5 y_53 - 3 y_54 + 1 y_55 + 9 u_26 + 4 u_27 >= 0
3 x_52 + 2 x_53 - 5 x_54 - 3 x_55 - 2 y_52 - 1 y_53 + 3 y_54 - 1 y_55 + 7 u_26 + 2 u_27 >= 0
1 x_52 + 2 x_53 + 2 x_54 + 0 x_55 - 1 y_52 + 0 y_53 - 1 y_54 + 0 y_55 + 1 u_26 - 1 u_27 >= 0
-3 x_52 - 2 x_53 + 1 x_54 - 2 x_55 - 2 y_52 - 1 y_53 + 3 y_54 - 1 y_55 + 7 u_26 + 1 u_27 >= 0
1 x_52 - 1 x_53 - 1 x_54 + 1 x_55 - 1 y_52 + 0 y_53 - 1 y_54 - 1 y_55 + 5 u_26 - 2 u_27 >= 0
-2 x_52 - 1 x_53 - 1 x_54 - 2 x_55 + 1 y_52 + 1 y_53 + 0 y_54 + 1 y_55 + 5 u_26 - 1 u_27 >= 0
-8 x_52 - 4 x_53 - 4 x_54 + 6 x_55 - 1 y_52 + 2 y_53 - 1 y_54 + 0 y_55 + 10 u_26 + 7 u_27 >= 0
0 x_52 + 1 x_53 + 1 x_54 - 1 x_55 + 1 y_52 - 1 y_53 + 1 y_54 - 1 y_55 + 2 u_26 - 1 u_27 >= 0
3 x_52 + 2 x_53 + 1 x_54 + 0 x_55 + 2 y_52 + 4 y_53 + 2 y_54 + 4 y_55 - 6 u_26 + 1 u_27 >= 0
0 x_52 + 3 x_53 - 3 x_54 + 1 x_55 - 1 y_52 - 1 y_53 - 2 y_54 - 2 y_55 + 6 u_26 + 1 u_27 >= 0
1 x_52 - 2 x_53 + 3 x_54 + 2 x_55 + 1 y_52 + 3 y_53 - 2 y_54 - 2 y_55 + 2 u_26 + 1 u_27 >= 0
0 x_52 - 3 x_53 - 3 x_54 - 2 x_55 - 1 y_52 + 2 y_53 - 1 y_54 - 2 y_55 + 10 u_26 - 1 u_27 >= 0
-1 x_52 + 2 x_53 + 2 x_54 + 5 x_55 + 1 y_52 - 1 y_53 + 1 y_54 + 3 y_55 - 3 u_26 + 1 u_27 >= 0
-1 x_52 + 0 x_53 - 1 x_54 - 1 x_55 - 1 y_52 + 0 y_53 + 1 y_54 + 1 y_55 + 4 u_26 - 1 u_27 >= 0
0 x_52 + 2 x_53 - 2 x_54 + 1 x_55 - 1 y_52 + 1 y_53 + 0 y_54 - 1 y_55 + 2 u_26 + 1 u_27 >= 0
3 x_52 + 1 x_53 + 1 x_54 - 3 x_55 - 2 y_52 - 3 y_53 - 2 y_54 + 1 y_55 + 7 u_26 - 1 u_27 >= 0
-3 x_52 - 1 x_53 + 2 x_54 - 2 x_55 - 2 y_52 + 0 y_53 + 2 y_54 - 1 y_55 + 5 u_26 + 2 u_27 >= 0
0 x_52 - 2 x_53 + 2 x_54 + 1 x_55 - 2 y_52 - 1 y_53 + 0 y_54 - 1 y_55 + 4 u_26 + 1 u_27 >= 0
0 x_56 - 1 x_57 - 1 x_58 - 1 x_59 - 2 y_56 - 2 y_57 - 2 y_58 - 1 y_59 + 10 u_28 - 3 u_29 >= 0
4 x_56 + 2 x_57 + 2 x_58 + 5 x_59 + 1 y_56 + 4 y_57 + 1 y_58 + 6 y_59 - 12 u_28 + 8 u_29 >= 0
3 x_56 + 4 x_57 + 4 x_58 + 2 x_59 + 2 y_56 + 0 y_57 + 2 y_58 + 1 y_59 - 5 u_28 - 1 u_29 >= 0
-1 x_56 - 8 x_57 + 7 x_58 - 3 x_59 - 2 y_56 + 4 y_57 - 2 y_58 - 9 y_59 + 14 u_28 + 11 u_29 >= 0
-5 x_56 + 4 x_57 - 2 x_58 - 3 x_59 + 3 y_56 + 1 y_57 - 3 y_58 - 1 y_59 + 7 u_28 + 4 u_29 >= 0
0 x_56 - 1 x_57 - 1 x_58 + 1 x_59 + 2 y_56 + 0 y_57 + 2 y_58 + 0 y_59 + 1 u_28 - 1 u_29 >= 0
-1 x_56 + 1 x_57 - 2 x_58 + 2 x_59 - 5 y_56 - 4 y_57 + 3 y_58 + 1 y_59 + 6 u_28 + 5 u_29 >= 0
1 x_56 - 5 x_57 + 2 x_58 - 2 x_59 + 3 y_56 - 5 y_57 - 3 y_58 + 1 y_59 + 9 u_28 + 4 u_29 >= 0
3 x_56 + 2 x_57 - 5 x_58 - 3 x_59 - 2 y_56 - 1 y_57 + 3 y_58 - 1 y_59 + 7 u_28 + 2 u_29 >= 0
1 x_56 + 2 x_57 + 2 x_58 + 0 x_59 - 1 y_56 + 0 y_57 - 1 y_58 + 0 y_59 + 1 u_28 - 1 u_29 >= 0
-3 x_56 - 2 x_57 + 1 x_58 - 2 x_59 - 2 y_56 - 1 y_57 + 3 y_58 - 1 y_59 + 7 u_28 + 1 u_29 >= 0
1 x_56 - 1 x_57 - 1 x_58 + 1 x_59 - 1 y_56 + 0 y_57 - 1 y_58 - 1 y_59 + 5 u_28 - 2 u_29 >= 0
-2 x_56 - 1 x_57 - 1 x_58 - 2 x_59 + 1 y_56 + 1 y_57 + 0 y_58 + 1 y_59 + 5 u_28 - 1 u_29 >= 0
-8 x_56 - 4 x_57 - 4 x_58 + 6 x_59 - 1 y_56 + 2 y_57 - 1 y_58 + 0 y_59 + 10 u_28 + 7 u_29 >= 0
0 x_56 + 1 x_57 + 1 x_58 - 1 x_59 + 1 y_56 - 1 y_57 + 1 y_58 - 1 y_59 + 2 u_28 - 1 u_29 >= 0
3 x_56 + 2 x_57 + 1 x_58 + 0 x_59 + 2 y_56 + 4 y_57 + 2 y_58 + 4 y_59 - 6 u_28 + 1 u_29 >= 0
0 x_56 + 3 x_57 - 3 x_58 + 1 x_59 - 1 y_56 - 1 y_57 - 2 y_58 - 2 y_59 + 6 u_28 + 1 u_29 >= 0
1 x_56 - 2 x_57 + 3 x_58 + 2 x_59 + 1 y_56 + 3 y_57 - 2 y_58 - 2 y_59 + 2 u_28 + 1 u_29 >= 0
0 x_56 - 3 x_57 - 3 x_58 - 2 x_59 - 1 y_56 + 2 y_57 - 1 y_58 - 2 y_59 + 10 u_28 - 1 u_29 >= 0
-1 x_56 + 2 x_57 + 2 x_58 + 5 x_59 + 1 y_56 - 1 y_57 + 1 y_58 + 3 y_59 - 3 u_28 + 1 u_29 >= 0
-1 x_56 + 0 x_57 - 1 x_58 - 1 x_59 - 1 y_56 + 0 y_57 + 1 y_58 + 1 y_59 + 4 u_28 - 1 u_29 >= 0
0 x_56 + 2 x_57 - 2 x_58 + 1 x_59 - 1 y_56 + 1 y_57 + 0 y_58 - 1 y_59 + 2 u_28 + 1 u_29 >= 0
3 x_56 + 1 x_57 + 1 x_58 - 3 x_59 - 2 y_56 - 3 y_57 - 2 y_58 + 1 y_59 + 7 u_28 - 1 u_29 >= 0
-3 x_56 - 1 x_57 + 2 x_58 - 2 x_59 - 2 y_56 + 0 y_57 + 2 y_58 - 1 y_59 + 5 u_28 + 2 u_29 >= 0
0 x_56 - 2 x_57 + 2 x_58 + 1 x_59 - 2 y_56 - 1 y_57 + 0 y_58 - 1 y_59 + 4 u_28 + 1 u_29 >= 0
0 x_60 - 1 x_61 - 1 x_62 - 1 x_63 - 2 y_60 - 2 y_61 - 2 y_62 - 1 y_63 + 10 u_30 - 3 u_31 >= 0
4 x_60 + 2 x_61 + 2 x_62 + 5 x_63 + 1 y_60 + 4 y_61 + 1 y_62 + 6 y_63 - 12 u_30 + 8 u_31 >= 0
3 x_60 + 4 x_61 + 4 x_62 + 2 x_63 + 2 y_60 + 0 y_61 + 2 y_62 + 1 y_63 - 5 u_30 - 1 u_31 >= 0
-1 x_60 - 8 x_61 + 7 x_62 - 3 x_63 - 2 y_60 + 4 y_61 - 2 y_62 - 9 y_63 + 14 u_30 + 11 u_31 >= 0
-5 x_60 + 4 x_61 - 2 x_62 - 3 x_63 + 3 y_60 + 1 y_61 - 3 y_62 - 1 y_63 + 7 u_30 + 4 u_31 >= 0
0 x_60 - 1 x_61 - 1 x_62 + 1 x_63 + 2 y_60 + 0 y_61 + 2 y_62 + 0 y_63 + 1 u_30 - 1 u_31 >= 0
-1 x_60 + 1 x_61 - 2 x_62 + 2 x_63 - 5 y_60 - 4 y_61 + 3 y_62 + 1 y_63 + 6 u_30 + 5 u_31 >= 0
1 x_60 - 5 x_61 + 2 x_62 - 2 x_63 + 3 y_60 - 5 y_61 - 3 y_62 + 1 y_63 + 9 u_30 + 4 u_31 >= 0
3 x_60 + 2 x_61 - 5 x_62 - 3 x_63 - 2 y_60 - 1 y_61 + 3 y_62 - 1 y_63 + 7 u_30 + 2 u_31 >= 0
1 x_60 + 2 x_61 + 2 x_62 + 0 x_63 - 1 y_60 + 0 y_61 - 1 y_62 + 0 y_63 + 1 u_30 - 1 u_31 >= 0
-3 x_60 - 2 x_61 + 1 x_62 - 2 x_63 - 2 y_60 - 1 y_61 + 3 y_62 - 1 y_63 + 7 u_30 + 1 u_31 >= 0
1 x_60 - 1 x_61 - 1 x_62 + 1 x_63 - 1 y_60 + 0 y_61 - 1 y_62 - 1 y_63 + 5 u_30 - 2 u_31 >= 0
-2 x_60 - 1 x_61 - 1 x_62 - 2 x_63 + 1 y_60 + 1 y_61 + 0 y_62 + 1 y_63 + 5 u_30 - 1 u_31 >= 0
-8 x_60 - 4 x_61 - 4 x_62 + 6 x_63 - 1 y_60 + 2 y_61 - 1 y_62 + 0 y_63 + 10 u_30 + 7 u_31 >= 0
0 x_60 + 1 x_61 + 1 x_62 - 1 x_63 + 1 y_60 - 1 y_61 + 1 y_62 - 1 y_63 + 2 u_30 - 1 u_31 >= 0
3 x_60 + 2 x_61 + 1 x_62 + 0 x_63 + 2 y_60 + 4 y_61 + 2 y_62 + 4 y_63 - 6 u_30 + 1 u_31 >= 0
0 x_60 + 3 x_61 - 3 x_62 + 1 x_63 - 1 y_60 - 1 y_61 - 2 y_62 - 2 y_63 + 6 u_30 + 1 u_31 >= 0
1 x_60 - 2 x_61 + 3 x_62 + 2 x_63 + 1 y_60 + 3 y_61 - 2 y_62 - 2 y_63 + 2 u_30 + 1 u_31 >= 0
0 x_60 - 3 x_61 - 3 x_62 - 2 x_63 - 1 y_60 + 2 y_61 - 1 y_62 - 2 y_63 + 10 u_30 - 1 u_31 >= 0
-1 x_60 + 2 x_61 + 2 x_62 + 5 x_63 + 1 y_60 - 1 y_61 + 1 y_62 + 3 y_63 - 3 u_30 + 1 u_31 >= 0
-1 x_60 + 0 x_61 - 1 x_62 - 1 x_63 - 1 y_60 + 0 y_61 + 1 y_62 + 1 y_63 + 4 u_30 - 1 u_31 >= 0
0 x_60 + 2 x_61 - 2 x_62 + 1 x_63 - 1 y_60 + 1 y_61 + 0 y_62 - 1 y_63 + 2 u_30 + 1 u_31 >= 0
3 x_60 + 1 x_61 + 1 x_62 - 3 x_63 - 2 y_60 - 3 y_61 - 2 y_62 + 1 y_63 + 7 u_30 - 1 u_31 >= 0
-3 x_60 - 1 x_61 + 2 x_62 - 2 x_63 - 2 y_60 + 0 y_61 + 2 y_62 - 1 y_63 + 5 u_30 + 2 u_31 >= 0
0 x_60 - 2 x_61 + 2 x_62 + 1 x_63 - 2 y_60 - 1 y_61 + 0 y_62 - 1 y_63 + 4 u_30 + 1 u_31 >= 0
Binary
x_0
x_1
x_2
x_3
x_4
x_5
x_6
x_7
x_8
x_9
x_10
x_11
x_12
x_13
x_14
x_15
x_16
x_17
x_18
x_19
x_20
x_21
x_22
x_23
x_24
x_25
x_26
x_27
x_28
x_29
x_30
x_31
x_32
x_33
x_34
x_35
x_36
x_37
x_38
x_39
x_40
x_41
x_42
x_43
x_44
x_45
x_46
x_47
x_48
x_49
x_50
x_51
x_52
x_53
x_54
x_55
x_56
x_57
x_58
x_59
x_60
x_61
x_62
x_63
y_0
y_1
y_2
y_3
y_4
y_5
y_6
y_7
y_8
y_9
y_10
y_11
y_12
y_13
y_14
y_15
y_16
y_17
y_18
y_19
y_20
y_21
y_22
y_23
y_24
y_25
y_26
y_27
y_28
y_29
y_30
y_31
y_32
y_33
y_34
y_35
y_36
y_37
y_38
y_39
y_40
y_41
y_42
y_43
y_44
y_45
y_46
y_47
y_48
y_49
y_50
y_51
y_52
y_53
y_54
y_55
y_56
y_57
y_58
y_59
y_60
y_61
y_62
y_63
u_0
u_1
u_2
u_3
u_4
u_5
u_6
u_7
u_8
u_9
u_10
u_11
u_12
u_13
u_14
u_15
u_16
u_17
u_18
u_19
u_20
u_21
u_22
u_23
u_24
u_25
u_26
u_27
u_28
u_29
u_30
u_31
END